21° run output:
{
    "Function": "kroB400.tsp",
    "Problem dimension": [
        316,
        59,
        240,
        312,
        68,
        328,
        37,
        300,
        352,
        327,
        157,
        192,
        35,
        267,
        82,
        117,
        226,
        206,
        286,
        335,
        360,
        304,
        186,
        270,
        21,
        311,
        219,
        102,
        233,
        170,
        64,
        211,
        381,
        69,
        301,
        341,
        250,
        307,
        224,
        197,
        11,
        173,
        174,
        94,
        113,
        321,
        371,
        385,
        343,
        39,
        75,
        323,
        235,
        354,
        84,
        155,
        127,
        332,
        120,
        215,
        48,
        0,
        303,
        169,
        133,
        369,
        151,
        236,
        234,
        290,
        118,
        228,
        261,
        78,
        51,
        108,
        287,
        364,
        178,
        259,
        291,
        14,
        330,
        44,
        163,
        202,
        181,
        247,
        130,
        254,
        246,
        81,
        62,
        292,
        83,
        347,
        58,
        390,
        164,
        225,
        177,
        309,
        295,
        146,
        395,
        257,
        182,
        387,
        33,
        252,
        344,
        394,
        194,
        274,
        119,
        189,
        114,
        88,
        386,
        375,
        331,
        43,
        260,
        273,
        71,
        98,
        4,
        116,
        49,
        284,
        115,
        392,
        184,
        221,
        19,
        382,
        63,
        149,
        277,
        253,
        355,
        26,
        241,
        208,
        198,
        42,
        5,
        288,
        86,
        249,
        112,
        104,
        266,
        285,
        167,
        271,
        210,
        176,
        143,
        22,
        296,
        399,
        53,
        6,
        195,
        190,
        315,
        248,
        45,
        97,
        165,
        275,
        89,
        93,
        171,
        111,
        302,
        339,
        3,
        366,
        350,
        345,
        141,
        329,
        87,
        222,
        91,
        23,
        205,
        159,
        336,
        379,
        203,
        154,
        50,
        139,
        55,
        204,
        373,
        109,
        172,
        334,
        52,
        269,
        376,
        324,
        353,
        297,
        243,
        255,
        131,
        99,
        147,
        129,
        152,
        179,
        319,
        148,
        239,
        358,
        391,
        28,
        17,
        191,
        396,
        279,
        276,
        18,
        317,
        12,
        357,
        337,
        38,
        74,
        227,
        378,
        175,
        70,
        213,
        25,
        72,
        2,
        27,
        8,
        73,
        161,
        54,
        105,
        199,
        1,
        265,
        31,
        368,
        156,
        220,
        232,
        264,
        280,
        237,
        380,
        132,
        65,
        168,
        384,
        134,
        333,
        47,
        212,
        306,
        346,
        79,
        196,
        374,
        268,
        283,
        135,
        145,
        100,
        308,
        121,
        10,
        293,
        103,
        348,
        24,
        160,
        106,
        262,
        16,
        77,
        30,
        201,
        158,
        136,
        263,
        209,
        320,
        251,
        322,
        123,
        187,
        138,
        359,
        242,
        256,
        229,
        36,
        362,
        351,
        66,
        85,
        398,
        281,
        282,
        101,
        41,
        338,
        15,
        238,
        305,
        188,
        20,
        388,
        223,
        278,
        310,
        34,
        46,
        29,
        325,
        340,
        125,
        289,
        57,
        294,
        349,
        162,
        393,
        40,
        342,
        193,
        389,
        153,
        272,
        76,
        56,
        218,
        200,
        80,
        107,
        61,
        67,
        244,
        90,
        363,
        180,
        397,
        216,
        356,
        230,
        32,
        183,
        313,
        128,
        122,
        126,
        110,
        142,
        214,
        314,
        318,
        231,
        137,
        372,
        185,
        370,
        96,
        92,
        166,
        9,
        7,
        299,
        13,
        258,
        140,
        150,
        95,
        217,
        298,
        245,
        207,
        365,
        60,
        361,
        144,
        326,
        367,
        124,
        377,
        383
    ],
    "Global Optimum": 0,
    "Algorithm": "Genetic algorithm",
    "Parameters": {
        "population": 30,
        "offspring": 30,
        "mutation probability": 0.0025,
        "crossover probability": 0.9
    },
    "Fitness": 402939,
    "Solution": [
        316,
        59,
        240,
        312,
        68,
        328,
        37,
        300,
        352,
        327,
        157,
        192,
        35,
        267,
        82,
        117,
        226,
        206,
        286,
        335,
        360,
        304,
        186,
        270,
        21,
        311,
        219,
        102,
        233,
        170,
        64,
        211,
        381,
        69,
        301,
        341,
        250,
        307,
        224,
        197,
        11,
        173,
        174,
        94,
        113,
        321,
        371,
        385,
        343,
        39,
        75,
        323,
        235,
        354,
        84,
        155,
        127,
        332,
        120,
        215,
        48,
        0,
        303,
        169,
        133,
        369,
        151,
        236,
        234,
        290,
        118,
        228,
        261,
        78,
        51,
        108,
        287,
        364,
        178,
        259,
        291,
        14,
        330,
        44,
        163,
        202,
        181,
        247,
        130,
        254,
        246,
        81,
        62,
        292,
        83,
        347,
        58,
        390,
        164,
        225,
        177,
        309,
        295,
        146,
        395,
        257,
        182,
        387,
        33,
        252,
        344,
        394,
        194,
        274,
        119,
        189,
        114,
        88,
        386,
        375,
        331,
        43,
        260,
        273,
        71,
        98,
        4,
        116,
        49,
        284,
        115,
        392,
        184,
        221,
        19,
        382,
        63,
        149,
        277,
        253,
        355,
        26,
        241,
        208,
        198,
        42,
        5,
        288,
        86,
        249,
        112,
        104,
        266,
        285,
        167,
        271,
        210,
        176,
        143,
        22,
        296,
        399,
        53,
        6,
        195,
        190,
        315,
        248,
        45,
        97,
        165,
        275,
        89,
        93,
        171,
        111,
        302,
        339,
        3,
        366,
        350,
        345,
        141,
        329,
        87,
        222,
        91,
        23,
        205,
        159,
        336,
        379,
        203,
        154,
        50,
        139,
        55,
        204,
        373,
        109,
        172,
        334,
        52,
        269,
        376,
        324,
        353,
        297,
        243,
        255,
        131,
        99,
        147,
        129,
        152,
        179,
        319,
        148,
        239,
        358,
        391,
        28,
        17,
        191,
        396,
        279,
        276,
        18,
        317,
        12,
        357,
        337,
        38,
        74,
        227,
        378,
        175,
        70,
        213,
        25,
        72,
        2,
        27,
        8,
        73,
        161,
        54,
        105,
        199,
        1,
        265,
        31,
        368,
        156,
        220,
        232,
        264,
        280,
        237,
        380,
        132,
        65,
        168,
        384,
        134,
        333,
        47,
        212,
        306,
        346,
        79,
        196,
        374,
        268,
        283,
        135,
        145,
        100,
        308,
        121,
        10,
        293,
        103,
        348,
        24,
        160,
        106,
        262,
        16,
        77,
        30,
        201,
        158,
        136,
        263,
        209,
        320,
        251,
        322,
        123,
        187,
        138,
        359,
        242,
        256,
        229,
        36,
        362,
        351,
        66,
        85,
        398,
        281,
        282,
        101,
        41,
        338,
        15,
        238,
        305,
        188,
        20,
        388,
        223,
        278,
        310,
        34,
        46,
        29,
        325,
        340,
        125,
        289,
        57,
        294,
        349,
        162,
        393,
        40,
        342,
        193,
        389,
        153,
        272,
        76,
        56,
        218,
        200,
        80,
        107,
        61,
        67,
        244,
        90,
        363,
        180,
        397,
        216,
        356,
        230,
        32,
        183,
        313,
        128,
        122,
        126,
        110,
        142,
        214,
        314,
        318,
        231,
        137,
        372,
        185,
        370,
        96,
        92,
        166,
        9,
        7,
        299,
        13,
        258,
        140,
        150,
        95,
        217,
        298,
        245,
        207,
        365,
        60,
        361,
        144,
        326,
        367,
        124,
        377,
        383
    ],
    "Nb of functions evaluations": 400020,
    "Computational time in seconds": 986.4864873886108,
    "Stopping criterion in evaluations": 400000
}